c 
c G(n,p) graph
c graph gen seed     : 230594
c number of vertices : 70
c max number of edges: 2415
c edge probability   : 0.400000
c data structure     : sparse
c
c           Graph Stats
c number of vertices  : 70
c nonisolated vertices: 70
c number of edges     : 981
c edge density        : 0.406211
c max degree          : 39
c avg degree          : 28.03
c min degree          : 17
p col 70 981
e 1 65
e 1 62
e 1 61
e 1 58
e 1 57
e 1 49
e 1 48
e 1 46
e 1 45
e 1 44
e 1 43
e 1 42
e 1 41
e 1 39
e 1 36
e 1 31
e 1 30
e 1 29
e 1 26
e 1 25
e 1 23
e 1 20
e 1 18
e 1 16
e 1 15
e 1 14
e 1 11
e 1 10
e 1 8
e 1 7
e 1 6
e 1 4
e 1 2
e 2 67
e 2 65
e 2 63
e 2 62
e 2 61
e 2 60
e 2 59
e 2 57
e 2 56
e 2 53
e 2 50
e 2 48
e 2 47
e 2 45
e 2 42
e 2 40
e 2 35
e 2 30
e 2 27
e 2 26
e 2 24
e 2 23
e 2 22
e 2 18
e 2 16
e 2 15
e 2 13
e 2 10
e 2 3
e 3 65
e 3 61
e 3 60
e 3 59
e 3 54
e 3 51
e 3 45
e 3 40
e 3 39
e 3 38
e 3 37
e 3 35
e 3 34
e 3 32
e 3 31
e 3 25
e 3 23
e 3 21
e 3 18
e 3 16
e 3 15
e 3 14
e 3 13
e 3 6
e 4 70
e 4 69
e 4 68
e 4 67
e 4 65
e 4 64
e 4 60
e 4 58
e 4 57
e 4 54
e 4 52
e 4 37
e 4 36
e 4 34
e 4 28
e 4 27
e 4 26
e 4 21
e 4 20
e 4 19
e 4 16
e 4 15
e 4 14
e 4 13
e 4 8
e 4 5
e 5 68
e 5 67
e 5 65
e 5 64
e 5 63
e 5 62
e 5 60
e 5 58
e 5 57
e 5 48
e 5 47
e 5 42
e 5 40
e 5 38
e 5 35
e 5 34
e 5 33
e 5 31
e 5 29
e 5 25
e 5 24
e 5 20
e 5 19
e 5 15
e 5 12
e 5 9
e 6 70
e 6 68
e 6 64
e 6 58
e 6 55
e 6 50
e 6 46
e 6 45
e 6 43
e 6 41
e 6 40
e 6 35
e 6 34
e 6 30
e 6 28
e 6 24
e 6 23
e 6 12
e 6 10
e 7 69
e 7 68
e 7 67
e 7 65
e 7 60
e 7 58
e 7 56
e 7 55
e 7 53
e 7 47
e 7 43
e 7 41
e 7 40
e 7 39
e 7 37
e 7 35
e 7 33
e 7 32
e 7 29
e 7 28
e 7 25
e 7 18
e 7 16
e 7 14
e 7 13
e 7 11
e 7 10
e 7 8
e 8 70
e 8 67
e 8 66
e 8 64
e 8 61
e 8 52
e 8 51
e 8 49
e 8 46
e 8 43
e 8 36
e 8 30
e 8 28
e 8 27
e 8 22
e 8 19
e 8 16
e 8 12
e 9 70
e 9 64
e 9 60
e 9 56
e 9 52
e 9 46
e 9 45
e 9 42
e 9 40
e 9 37
e 9 35
e 9 33
e 9 27
e 9 26
e 9 24
e 9 22
e 9 18
e 9 17
e 9 16
e 9 15
e 9 13
e 9 12
e 10 67
e 10 63
e 10 62
e 10 61
e 10 60
e 10 59
e 10 57
e 10 56
e 10 55
e 10 53
e 10 51
e 10 49
e 10 44
e 10 40
e 10 39
e 10 37
e 10 35
e 10 33
e 10 22
e 10 20
e 10 17
e 11 68
e 11 67
e 11 65
e 11 63
e 11 62
e 11 61
e 11 60
e 11 57
e 11 55
e 11 54
e 11 53
e 11 50
e 11 49
e 11 46
e 11 43
e 11 38
e 11 34
e 11 33
e 11 32
e 11 31
e 11 30
e 11 28
e 11 24
e 11 19
e 11 12
e 12 65
e 12 61
e 12 58
e 12 53
e 12 48
e 12 46
e 12 41
e 12 36
e 12 32
e 12 31
e 12 30
e 12 28
e 12 24
e 12 23
e 12 18
e 12 15
e 12 14
e 12 13
e 13 70
e 13 69
e 13 67
e 13 62
e 13 60
e 13 59
e 13 58
e 13 56
e 13 54
e 13 53
e 13 51
e 13 50
e 13 49
e 13 48
e 13 44
e 13 43
e 13 34
e 13 32
e 13 27
e 13 25
e 13 24
e 13 21
e 13 19
e 13 18
e 13 15
e 13 14
e 14 70
e 14 62
e 14 61
e 14 59
e 14 58
e 14 55
e 14 51
e 14 49
e 14 45
e 14 44
e 14 43
e 14 42
e 14 41
e 14 38
e 14 34
e 14 33
e 14 30
e 14 27
e 14 25
e 14 19
e 14 17
e 15 70
e 15 67
e 15 66
e 15 65
e 15 63
e 15 62
e 15 61
e 15 60
e 15 56
e 15 55
e 15 54
e 15 53
e 15 51
e 15 49
e 15 46
e 15 43
e 15 41
e 15 39
e 15 38
e 15 37
e 15 33
e 15 32
e 15 28
e 15 26
e 15 23
e 15 22
e 15 21
e 15 19
e 15 18
e 15 17
e 15 16
e 16 68
e 16 67
e 16 65
e 16 64
e 16 59
e 16 58
e 16 56
e 16 55
e 16 54
e 16 53
e 16 52
e 16 49
e 16 48
e 16 46
e 16 45
e 16 42
e 16 41
e 16 40
e 16 38
e 16 37
e 16 34
e 16 29
e 16 27
e 16 26
e 16 24
e 16 23
e 16 19
e 17 70
e 17 68
e 17 67
e 17 65
e 17 64
e 17 63
e 17 59
e 17 57
e 17 56
e 17 51
e 17 50
e 17 48
e 17 46
e 17 45
e 17 44
e 17 37
e 17 36
e 17 33
e 17 29
e 17 26
e 17 25
e 17 24
e 17 22
e 17 19
e 18 63
e 18 62
e 18 59
e 18 57
e 18 56
e 18 52
e 18 51
e 18 50
e 18 48
e 18 42
e 18 37
e 18 36
e 18 34
e 18 32
e 18 30
e 18 29
e 18 24
e 18 23
e 18 22
e 19 70
e 19 59
e 19 57
e 19 54
e 19 52
e 19 50
e 19 49
e 19 45
e 19 43
e 19 41
e 19 37
e 19 35
e 19 34
e 19 33
e 19 32
e 19 29
e 19 28
e 19 20
e 20 70
e 20 69
e 20 68
e 20 66
e 20 64
e 20 63
e 20 62
e 20 59
e 20 57
e 20 56
e 20 54
e 20 52
e 20 50
e 20 48
e 20 46
e 20 45
e 20 44
e 20 42
e 20 38
e 20 37
e 20 35
e 20 33
e 20 32
e 20 31
e 20 28
e 20 26
e 21 67
e 21 65
e 21 62
e 21 61
e 21 60
e 21 56
e 21 55
e 21 52
e 21 51
e 21 50
e 21 49
e 21 47
e 21 46
e 21 44
e 21 42
e 21 41
e 21 40
e 21 39
e 21 31
e 21 26
e 21 25
e 21 22
e 22 69
e 22 68
e 22 67
e 22 65
e 22 62
e 22 61
e 22 59
e 22 58
e 22 53
e 22 51
e 22 49
e 22 47
e 22 46
e 22 44
e 22 43
e 22 37
e 22 35
e 22 31
e 22 29
e 22 27
e 22 26
e 22 23
e 23 70
e 23 68
e 23 67
e 23 66
e 23 62
e 23 59
e 23 49
e 23 44
e 23 40
e 23 39
e 23 29
e 23 25
e 24 67
e 24 66
e 24 63
e 24 62
e 24 61
e 24 55
e 24 52
e 24 51
e 24 49
e 24 48
e 24 45
e 24 44
e 24 43
e 24 39
e 24 38
e 24 35
e 24 34
e 24 32
e 24 31
e 24 29
e 24 27
e 25 70
e 25 66
e 25 57
e 25 52
e 25 50
e 25 49
e 25 48
e 25 47
e 25 45
e 25 38
e 25 35
e 25 33
e 25 29
e 26 70
e 26 68
e 26 66
e 26 65
e 26 64
e 26 63
e 26 62
e 26 61
e 26 57
e 26 56
e 26 54
e 26 53
e 26 52
e 26 50
e 26 48
e 26 46
e 26 45
e 26 43
e 26 39
e 26 38
e 26 37
e 26 35
e 26 33
e 26 30
e 26 28
e 27 70
e 27 69
e 27 65
e 27 64
e 27 63
e 27 61
e 27 60
e 27 59
e 27 58
e 27 57
e 27 54
e 27 52
e 27 50
e 27 48
e 27 46
e 27 44
e 27 41
e 27 40
e 27 39
e 27 38
e 27 37
e 27 34
e 27 32
e 28 59
e 28 57
e 28 56
e 28 44
e 28 40
e 28 39
e 28 36
e 28 33
e 28 32
e 28 30
e 29 70
e 29 65
e 29 63
e 29 58
e 29 55
e 29 52
e 29 47
e 29 46
e 29 42
e 29 41
e 29 38
e 29 37
e 29 36
e 29 35
e 29 34
e 29 31
e 30 60
e 30 58
e 30 55
e 30 51
e 30 50
e 30 49
e 30 48
e 30 46
e 30 45
e 30 44
e 30 43
e 30 38
e 30 36
e 30 35
e 31 67
e 31 65
e 31 64
e 31 62
e 31 61
e 31 60
e 31 58
e 31 57
e 31 56
e 31 52
e 31 50
e 31 49
e 31 48
e 31 47
e 31 42
e 31 41
e 31 37
e 31 35
e 31 34
e 32 69
e 32 67
e 32 65
e 32 64
e 32 62
e 32 59
e 32 56
e 32 54
e 32 50
e 32 49
e 32 48
e 32 44
e 32 42
e 32 39
e 32 38
e 32 36
e 32 35
e 32 34
e 33 66
e 33 63
e 33 60
e 33 59
e 33 58
e 33 55
e 33 54
e 33 52
e 33 46
e 33 45
e 33 41
e 33 40
e 33 39
e 33 38
e 33 36
e 34 68
e 34 62
e 34 61
e 34 60
e 34 59
e 34 58
e 34 57
e 34 48
e 34 47
e 34 44
e 34 43
e 34 42
e 34 41
e 34 37
e 34 36
e 35 70
e 35 68
e 35 66
e 35 63
e 35 61
e 35 59
e 35 55
e 35 53
e 35 51
e 35 50
e 35 49
e 35 47
e 35 46
e 35 44
e 35 43
e 35 42
e 35 41
e 35 38
e 35 37
e 36 70
e 36 67
e 36 66
e 36 62
e 36 61
e 36 59
e 36 58
e 36 57
e 36 56
e 36 54
e 36 52
e 36 50
e 36 47
e 36 46
e 36 44
e 36 42
e 36 41
e 36 38
e 37 70
e 37 67
e 37 65
e 37 64
e 37 60
e 37 57
e 37 55
e 37 50
e 37 49
e 37 48
e 37 46
e 37 45
e 37 44
e 37 42
e 38 63
e 38 61
e 38 59
e 38 54
e 38 52
e 38 48
e 38 46
e 38 43
e 38 42
e 38 40
e 38 39
e 39 69
e 39 67
e 39 66
e 39 63
e 39 60
e 39 59
e 39 58
e 39 56
e 39 54
e 39 46
e 39 45
e 39 44
e 39 42
e 40 70
e 40 69
e 40 68
e 40 67
e 40 62
e 40 58
e 40 54
e 40 53
e 40 52
e 40 51
e 40 50
e 40 47
e 40 45
e 40 44
e 40 42
e 40 41
e 41 70
e 41 69
e 41 58
e 41 57
e 41 55
e 41 54
e 41 53
e 41 51
e 41 50
e 41 49
e 41 48
e 41 43
e 42 69
e 42 62
e 42 61
e 42 57
e 42 56
e 42 55
e 42 52
e 42 46
e 42 44
e 43 69
e 43 68
e 43 67
e 43 66
e 43 61
e 43 59
e 43 58
e 43 56
e 43 54
e 43 49
e 43 47
e 43 45
e 43 44
e 44 67
e 44 63
e 44 62
e 44 60
e 44 58
e 44 55
e 44 54
e 44 47
e 44 46
e 44 45
e 45 70
e 45 67
e 45 66
e 45 65
e 45 59
e 45 58
e 45 56
e 45 54
e 45 49
e 45 47
e 45 46
e 46 68
e 46 65
e 46 64
e 46 63
e 46 62
e 46 60
e 46 58
e 46 57
e 46 54
e 46 49
e 47 69
e 47 68
e 47 63
e 47 62
e 47 48
e 48 64
e 48 62
e 48 61
e 48 60
e 48 58
e 48 56
e 48 54
e 48 49
e 49 70
e 49 68
e 49 65
e 49 64
e 49 61
e 49 51
e 50 68
e 50 66
e 50 65
e 50 63
e 50 62
e 50 61
e 50 56
e 50 54
e 50 51
e 51 69
e 51 64
e 51 62
e 51 58
e 51 55
e 51 53
e 52 70
e 52 68
e 52 64
e 52 62
e 52 61
e 53 70
e 53 68
e 53 67
e 53 61
e 53 58
e 53 56
e 53 55
e 54 70
e 54 68
e 54 67
e 54 61
e 54 57
e 54 55
e 55 67
e 55 65
e 55 64
e 55 59
e 55 57
e 55 56
e 56 69
e 56 68
e 56 66
e 56 65
e 56 62
e 56 61
e 56 58
e 57 69
e 57 65
e 57 64
e 57 63
e 57 60
e 57 59
e 58 67
e 58 64
e 58 60
e 58 59
e 59 68
e 59 67
e 59 63
e 59 61
e 59 60
e 60 64
e 60 63
e 60 62
e 60 61
e 61 66
e 61 65
e 61 63
e 61 62
e 62 70
e 62 69
e 62 67
e 62 65
e 63 68
e 63 66
e 63 64
e 64 67
e 65 70
e 65 68
e 66 70
